% This input file rquires 6 minutes of computation to find the final solution that uses 5/5 of the input tiles

n = 5;  

num_tessere = 5; 

numero_di_celle = [3,3,3,4,4];

tessere = [| (1, 0, 0), (2, 0, 1), (3, 0, 2), (0, 0, 0) | % verde
             (1, 0, 0), (2, 0, 1), (3, 0, 2), (0, 0, 0) | % verde
             (1, 0, 0), (2, 1, 0), (3, 2, 0), (0, 0, 0) | % blu
             (4, 0, 0), (2, 0, 1), (3, 1, 0), (4, 1, 1) | % viola
             (1, 0, 0), (3, 0, 1), (2, 1, 0), (4, 1, 1) |]; % viola
